54
120
84	3
82	1
81	1
78	2
75	2
73	3
72	1
71	1
70	1
68	2
66	1
65	3
63	2
62	3
61	3
60	4
58	3
57	2
56	2
55	1
54	1
53	1
52	2
51	3
50	1
49	2
48	2
47	3
46	2
45	1
44	1
42	1
41	3
40	2
38	2
37	3
36	2
35	1
32	4
30	1
29	2
28	2
27	1
26	2
25	1
24	2
23	2
21	2
20	1
19	1
18	2
17	1
14	1
13	1
